problems/VanDerWaerdenNumbers/VanDerWaerden-models/noch/O2/lingeling/model_4-k3l4n36-solution000001.solution
language Essence 1.3

letting p be
        partition({1, 6, 7, 8, 13, 14, 16, 21, 23, 24, 30, 31, 33, 34, 36}, {2, 4, 9, 10, 11, 17, 19, 25, 26, 27, 32},
                  {3, 5, 12, 15, 18, 20, 22, 28, 29, 35})
